minimize
obj: 7.99 x_1,1,1_ + 0.14 I_1,1,1_ + 7.99 x_1,1,2_ + 0.14 I_1,1,2_ + 7.99 x_1,1,3_ + 0.14 I_1,1,3_ + 7.99 x_1,1,4_ + 0.14 I_1,1,4_ + 7.99 x_1,1,5_ + 0.14 I_1,1,5_ + 7.99 x_1,1,6_ + 0.14 I_1,1,6_ + 6.89 x_1,2,1_ + 0.14 I_1,2,1_ + 6.89 x_1,2,2_ + 0.14 I_1,2,2_ + 6.89 x_1,2,3_ + 0.14 I_1,2,3_ + 6.89 x_1,2,4_ + 0.14 I_1,2,4_ + 6.89 x_1,2,5_ + 0.14 I_1,2,5_ + 6.89 x_1,2,6_ + 0.14 I_1,2,6_ + 9.18 x_1,3,1_ + 0.14 I_1,3,1_ + 9.18 x_1,3,2_ + 0.14 I_1,3,2_ + 9.18 x_1,3,3_ + 0.14 I_1,3,3_ + 9.18 x_1,3,4_ + 0.14 I_1,3,4_ + 9.18 x_1,3,5_ + 0.14 I_1,3,5_ + 9.18 x_1,3,6_ + 0.14 I_1,3,6_ + 28.69 x_1,4,1_ + 0.14 I_1,4,1_ + 28.69 x_1,4,2_ + 0.14 I_1,4,2_ + 28.69 x_1,4,3_ + 0.14 I_1,4,3_ + 28.69 x_1,4,4_ + 0.14 I_1,4,4_ + 28.69 x_1,4,5_ + 0.14 I_1,4,5_ + 28.69 x_1,4,6_ + 0.14 I_1,4,6_ + 61.6 x_1,5,1_ + 0.14 I_1,5,1_ + 61.6 x_1,5,2_ + 0.14 I_1,5,2_ + 61.6 x_1,5,3_ + 0.14 I_1,5,3_ + 61.6 x_1,5,4_ + 0.14 I_1,5,4_ + 61.6 x_1,5,5_ + 0.14 I_1,5,5_ + 61.6 x_1,5,6_ + 0.14 I_1,5,6_ + 0.14 I_2,1,1_ + 0.14 I_2,1,2_ + 0.14 I_2,1,3_ + 0.14 I_2,1,4_ + 0.14 I_2,1,5_ + 0.14 I_2,1,6_ + 0.21999999999999997 x_2,2,1_ + 0.14 I_2,2,1_ + 0.185 x_2,2,2_ + 0.14 I_2,2,2_ + 0.185 x_2,2,3_ + 0.14 I_2,2,3_ + 0.165 x_2,2,4_ + 0.14 I_2,2,4_ + 0.1875 x_2,2,5_ + 0.14 I_2,2,5_ + 0.1875 x_2,2,6_ + 0.14 I_2,2,6_ + 0.14 I_2,3,1_ + 0.14 I_2,3,2_ + 0.14 I_2,3,3_ + 0.14 I_2,3,4_ + 0.14 I_2,3,5_ + 0.14 I_2,3,6_ + 0.14 I_2,4,1_ + 0.14 I_2,4,2_ + 0.14 I_2,4,3_ + 0.14 I_2,4,4_ + 0.14 I_2,4,5_ + 0.14 I_2,4,6_ + 3.5111999999999997 x_3,1,1_ + 0.14 I_3,1,1_ + 2.9526 x_3,1,2_ + 0.14 I_3,1,2_ + 2.9526 x_3,1,3_ + 0.14 I_3,1,3_ + 2.6334 x_3,1,4_ + 0.14 I_3,1,4_ + 2.9924999999999997 x_3,1,5_ + 0.14 I_3,1,5_ + 2.9924999999999997 x_3,1,6_ + 0.14 I_3,1,6_ + 2.6928 x_3,2,1_ + 0.14 I_3,2,1_ + 2.2644 x_3,2,2_ + 0.14 I_3,2,2_ + 2.2644 x_3,2,3_ + 0.14 I_3,2,3_ + 2.0196 x_3,2,4_ + 0.14 I_3,2,4_ + 2.295 x_3,2,5_ + 0.14 I_3,2,5_ + 2.295 x_3,2,6_ + 0.14 I_3,2,6_ + 2.09 I_4,1,1_ + 2.09 I_4,1,2_ + 2.09 I_4,1,3_ + 2.09 I_4,1,4_ + 2.09 I_4,1,5_ + 2.09 I_4,1,6_ + 2.09 I_4,2,1_ + 2.09 I_4,2,2_ + 2.09 I_4,2,3_ + 2.09 I_4,2,4_ + 2.09 I_4,2,5_ + 2.09 I_4,2,6_ + 4.49 f_1,1,1,1_ + 4.49 f_1,1,1,2_ + 4.49 f_1,1,1,3_ + 4.49 f_1,1,1,4_ + 4.49 f_1,1,1,5_ + 4.49 f_1,1,1,6_ + 4.49 f_1,1,2,1_ + 4.49 f_1,1,2,2_ + 4.49 f_1,1,2,3_ + 4.49 f_1,1,2,4_ + 4.49 f_1,1,2,5_ + 4.49 f_1,1,2,6_ + 4.49 f_1,2,2,1_ + 4.49 f_1,2,2,2_ + 4.49 f_1,2,2,3_ + 4.49 f_1,2,2,4_ + 4.49 f_1,2,2,5_ + 4.49 f_1,2,2,6_ + 4.49 f_1,3,2,1_ + 4.49 f_1,3,2,2_ + 4.49 f_1,3,2,3_ + 4.49 f_1,3,2,4_ + 4.49 f_1,3,2,5_ + 4.49 f_1,3,2,6_ + 4.49 f_1,4,2,1_ + 4.49 f_1,4,2,2_ + 4.49 f_1,4,2,3_ + 4.49 f_1,4,2,4_ + 4.49 f_1,4,2,5_ + 4.49 f_1,4,2,6_ + 4.49 f_1,5,2,1_ + 4.49 f_1,5,2,2_ + 4.49 f_1,5,2,3_ + 4.49 f_1,5,2,4_ + 4.49 f_1,5,2,5_ + 4.49 f_1,5,2,6_ + 4.49 f_2,1,1,1_ + 4.49 f_2,1,1,2_ + 4.49 f_2,1,1,3_ + 4.49 f_2,1,1,4_ + 4.49 f_2,1,1,5_ + 4.49 f_2,1,1,6_ + 4.49 f_2,2,1,1_ + 4.49 f_2,2,1,2_ + 4.49 f_2,2,1,3_ + 4.49 f_2,2,1,4_ + 4.49 f_2,2,1,5_ + 4.49 f_2,2,1,6_ + 4.49 f_2,2,2,1_ + 4.49 f_2,2,2,2_ + 4.49 f_2,2,2,3_ + 4.49 f_2,2,2,4_ + 4.49 f_2,2,2,5_ + 4.49 f_2,2,2,6_ + 4.49 f_2,3,1,1_ + 4.49 f_2,3,1,2_ + 4.49 f_2,3,1,3_ + 4.49 f_2,3,1,4_ + 4.49 f_2,3,1,5_ + 4.49 f_2,3,1,6_ + 4.49 f_2,3,2,1_ + 4.49 f_2,3,2,2_ + 4.49 f_2,3,2,3_ + 4.49 f_2,3,2,4_ + 4.49 f_2,3,2,5_ + 4.49 f_2,3,2,6_ + 4.49 f_2,4,2,1_ + 4.49 f_2,4,2,2_ + 4.49 f_2,4,2,3_ + 4.49 f_2,4,2,4_ + 4.49 f_2,4,2,5_ + 4.49 f_2,4,2,6_ + 4.49 f_3,1,1,1_ + 4.49 f_3,1,1,2_ + 4.49 f_3,1,1,3_ + 4.49 f_3,1,1,4_ + 4.49 f_3,1,1,5_ + 4.49 f_3,1,1,6_ + 4.49 f_3,2,2,1_ + 4.49 f_3,2,2,2_ + 4.49 f_3,2,2,3_ + 4.49 f_3,2,2,4_ + 4.49 f_3,2,2,5_ + 4.49 f_3,2,2,6_
subject to
c1: 1 I_1,1,0_ = 0
c2: 1 I_1,2,0_ = 0
c3: 1 I_1,3,0_ = 0
c4: 1 I_1,4,0_ = 0
c5: 1 I_1,5,0_ = 0
c6: 1 I_2,1,0_ = 0
c7: 1 J_2,1,1,0_ = 0
c8: 1 I_2,2,0_ = 0
c9: 1 J_2,2,1,0_ = 0
c10: 1 J_2,2,2,0_ = 0
c11: 1 J_2,2,3,0_ = 0
c12: 1 J_2,2,4,0_ = 0
c13: 1 J_2,2,5,0_ = 0
c14: 1 I_2,3,0_ = 0
c15: 1 I_2,4,0_ = 0
c16: 1 I_3,1,0_ = 0
c17: 1 J_3,1,1,0_ = 0
c18: 1 J_3,1,2,0_ = 0
c19: 1 J_3,1,3,0_ = 0
c20: 1 I_3,2,0_ = 0
c21: 1 J_3,2,2,0_ = 0
c22: 1 J_3,2,3,0_ = 0
c23: 1 J_3,2,4,0_ = 0
c24: 1 I_4,1,0_ = 0
c25: 1 J_4,1,1,0_ = 0
c26: 1 I_4,2,0_ = 0
c27: 1 J_4,2,2,0_ = 0
c28: 1 x_1,1,1_ + 1 I_1,1,0_ - 1 I_1,1,1_ - 1 f_1,1,1,1_ - 1 f_1,1,2,1_ = 0
c29: 1 x_1,1,2_ + 1 I_1,1,1_ - 1 I_1,1,2_ - 1 f_1,1,1,2_ - 1 f_1,1,2,2_ = 0
c30: 1 x_1,1,3_ + 1 I_1,1,2_ - 1 I_1,1,3_ - 1 f_1,1,1,3_ - 1 f_1,1,2,3_ = 0
c31: 1 x_1,1,4_ + 1 I_1,1,3_ - 1 I_1,1,4_ - 1 f_1,1,1,4_ - 1 f_1,1,2,4_ = 0
c32: 1 x_1,1,5_ + 1 I_1,1,4_ - 1 I_1,1,5_ - 1 f_1,1,1,5_ - 1 f_1,1,2,5_ = 0
c33: 1 x_1,1,6_ + 1 I_1,1,5_ - 1 I_1,1,6_ - 1 f_1,1,1,6_ - 1 f_1,1,2,6_ = 0
c34: 1 x_1,2,1_ + 1 I_1,2,0_ - 1 I_1,2,1_ - 1 f_1,2,2,1_ = 0
c35: 1 x_1,2,2_ + 1 I_1,2,1_ - 1 I_1,2,2_ - 1 f_1,2,2,2_ = 0
c36: 1 x_1,2,3_ + 1 I_1,2,2_ - 1 I_1,2,3_ - 1 f_1,2,2,3_ = 0
c37: 1 x_1,2,4_ + 1 I_1,2,3_ - 1 I_1,2,4_ - 1 f_1,2,2,4_ = 0
c38: 1 x_1,2,5_ + 1 I_1,2,4_ - 1 I_1,2,5_ - 1 f_1,2,2,5_ = 0
c39: 1 x_1,2,6_ + 1 I_1,2,5_ - 1 I_1,2,6_ - 1 f_1,2,2,6_ = 0
c40: 1 x_1,3,1_ + 1 I_1,3,0_ - 1 I_1,3,1_ - 1 f_1,3,2,1_ = 0
c41: 1 x_1,3,2_ + 1 I_1,3,1_ - 1 I_1,3,2_ - 1 f_1,3,2,2_ = 0
c42: 1 x_1,3,3_ + 1 I_1,3,2_ - 1 I_1,3,3_ - 1 f_1,3,2,3_ = 0
c43: 1 x_1,3,4_ + 1 I_1,3,3_ - 1 I_1,3,4_ - 1 f_1,3,2,4_ = 0
c44: 1 x_1,3,5_ + 1 I_1,3,4_ - 1 I_1,3,5_ - 1 f_1,3,2,5_ = 0
c45: 1 x_1,3,6_ + 1 I_1,3,5_ - 1 I_1,3,6_ - 1 f_1,3,2,6_ = 0
c46: 1 x_1,4,1_ + 1 I_1,4,0_ - 1 I_1,4,1_ - 1 f_1,4,2,1_ = 0
c47: 1 x_1,4,2_ + 1 I_1,4,1_ - 1 I_1,4,2_ - 1 f_1,4,2,2_ = 0
c48: 1 x_1,4,3_ + 1 I_1,4,2_ - 1 I_1,4,3_ - 1 f_1,4,2,3_ = 0
c49: 1 x_1,4,4_ + 1 I_1,4,3_ - 1 I_1,4,4_ - 1 f_1,4,2,4_ = 0
c50: 1 x_1,4,5_ + 1 I_1,4,4_ - 1 I_1,4,5_ - 1 f_1,4,2,5_ = 0
c51: 1 x_1,4,6_ + 1 I_1,4,5_ - 1 I_1,4,6_ - 1 f_1,4,2,6_ = 0
c52: 1 x_1,5,1_ + 1 I_1,5,0_ - 1 I_1,5,1_ - 1 f_1,5,2,1_ = 0
c53: 1 x_1,5,2_ + 1 I_1,5,1_ - 1 I_1,5,2_ - 1 f_1,5,2,2_ = 0
c54: 1 x_1,5,3_ + 1 I_1,5,2_ - 1 I_1,5,3_ - 1 f_1,5,2,3_ = 0
c55: 1 x_1,5,4_ + 1 I_1,5,3_ - 1 I_1,5,4_ - 1 f_1,5,2,4_ = 0
c56: 1 x_1,5,5_ + 1 I_1,5,4_ - 1 I_1,5,5_ - 1 f_1,5,2,5_ = 0
c57: 1 x_1,5,6_ + 1 I_1,5,5_ - 1 I_1,5,6_ - 1 f_1,5,2,6_ = 0
c58: 1 x_2,1,1_ + 1 I_2,1,0_ - 1 I_2,1,1_ - 1 f_2,1,1,1_ = 0
c59: -0.048 x_2,1,1_ + 1 J_2,1,1,0_ - 1 J_2,1,1,1_ + 1 f_1,1,1,1_ = 0
c60: 1 x_2,1,2_ + 1 I_2,1,1_ - 1 I_2,1,2_ - 1 f_2,1,1,2_ = 0
c61: -0.048 x_2,1,2_ + 1 J_2,1,1,1_ - 1 J_2,1,1,2_ + 1 f_1,1,1,2_ = 0
c62: 1 x_2,1,3_ + 1 I_2,1,2_ - 1 I_2,1,3_ - 1 f_2,1,1,3_ = 0
c63: -0.048 x_2,1,3_ + 1 J_2,1,1,2_ - 1 J_2,1,1,3_ + 1 f_1,1,1,3_ = 0
c64: 1 x_2,1,4_ + 1 I_2,1,3_ - 1 I_2,1,4_ - 1 f_2,1,1,4_ = 0
c65: -0.048 x_2,1,4_ + 1 J_2,1,1,3_ - 1 J_2,1,1,4_ + 1 f_1,1,1,4_ = 0
c66: 1 x_2,1,5_ + 1 I_2,1,4_ - 1 I_2,1,5_ - 1 f_2,1,1,5_ = 0
c67: -0.048 x_2,1,5_ + 1 J_2,1,1,4_ - 1 J_2,1,1,5_ + 1 f_1,1,1,5_ = 0
c68: 1 x_2,1,6_ + 1 I_2,1,5_ - 1 I_2,1,6_ - 1 f_2,1,1,6_ = 0
c69: -0.048 x_2,1,6_ + 1 J_2,1,1,5_ - 1 J_2,1,1,6_ + 1 f_1,1,1,6_ = 0
c70: 1 x_2,2,1_ + 1 I_2,2,0_ - 1 I_2,2,1_ - 1 f_2,2,1,1_ - 1 f_2,2,2,1_ = 0
c71: -1.378 x_2,2,1_ + 1 J_2,2,1,0_ - 1 J_2,2,1,1_ + 1 f_1,1,2,1_ = 0
c72: -0.0298 x_2,2,1_ + 1 J_2,2,2,0_ - 1 J_2,2,2,1_ + 1 f_1,2,2,1_ = 0
c73: -0.057 x_2,2,1_ + 1 J_2,2,3,0_ - 1 J_2,2,3,1_ + 1 f_1,3,2,1_ = 0
c74: -0.0815 x_2,2,1_ + 1 J_2,2,4,0_ - 1 J_2,2,4,1_ + 1 f_1,4,2,1_ = 0
c75: -0.00657 x_2,2,1_ + 1 J_2,2,5,0_ - 1 J_2,2,5,1_ + 1 f_1,5,2,1_ = 0
c76: 1 x_2,2,2_ + 1 I_2,2,1_ - 1 I_2,2,2_ - 1 f_2,2,1,2_ - 1 f_2,2,2,2_ = 0
c77: -1.378 x_2,2,2_ + 1 J_2,2,1,1_ - 1 J_2,2,1,2_ + 1 f_1,1,2,2_ = 0
c78: -0.0298 x_2,2,2_ + 1 J_2,2,2,1_ - 1 J_2,2,2,2_ + 1 f_1,2,2,2_ = 0
c79: -0.057 x_2,2,2_ + 1 J_2,2,3,1_ - 1 J_2,2,3,2_ + 1 f_1,3,2,2_ = 0
c80: -0.0815 x_2,2,2_ + 1 J_2,2,4,1_ - 1 J_2,2,4,2_ + 1 f_1,4,2,2_ = 0
c81: -0.00657 x_2,2,2_ + 1 J_2,2,5,1_ - 1 J_2,2,5,2_ + 1 f_1,5,2,2_ = 0
c82: 1 x_2,2,3_ + 1 I_2,2,2_ - 1 I_2,2,3_ - 1 f_2,2,1,3_ - 1 f_2,2,2,3_ = 0
c83: -1.378 x_2,2,3_ + 1 J_2,2,1,2_ - 1 J_2,2,1,3_ + 1 f_1,1,2,3_ = 0
c84: -0.0298 x_2,2,3_ + 1 J_2,2,2,2_ - 1 J_2,2,2,3_ + 1 f_1,2,2,3_ = 0
c85: -0.057 x_2,2,3_ + 1 J_2,2,3,2_ - 1 J_2,2,3,3_ + 1 f_1,3,2,3_ = 0
c86: -0.0815 x_2,2,3_ + 1 J_2,2,4,2_ - 1 J_2,2,4,3_ + 1 f_1,4,2,3_ = 0
c87: -0.00657 x_2,2,3_ + 1 J_2,2,5,2_ - 1 J_2,2,5,3_ + 1 f_1,5,2,3_ = 0
c88: 1 x_2,2,4_ + 1 I_2,2,3_ - 1 I_2,2,4_ - 1 f_2,2,1,4_ - 1 f_2,2,2,4_ = 0
c89: -1.378 x_2,2,4_ + 1 J_2,2,1,3_ - 1 J_2,2,1,4_ + 1 f_1,1,2,4_ = 0
c90: -0.0298 x_2,2,4_ + 1 J_2,2,2,3_ - 1 J_2,2,2,4_ + 1 f_1,2,2,4_ = 0
c91: -0.057 x_2,2,4_ + 1 J_2,2,3,3_ - 1 J_2,2,3,4_ + 1 f_1,3,2,4_ = 0
c92: -0.0815 x_2,2,4_ + 1 J_2,2,4,3_ - 1 J_2,2,4,4_ + 1 f_1,4,2,4_ = 0
c93: -0.00657 x_2,2,4_ + 1 J_2,2,5,3_ - 1 J_2,2,5,4_ + 1 f_1,5,2,4_ = 0
c94: 1 x_2,2,5_ + 1 I_2,2,4_ - 1 I_2,2,5_ - 1 f_2,2,1,5_ - 1 f_2,2,2,5_ = 0
c95: -1.378 x_2,2,5_ + 1 J_2,2,1,4_ - 1 J_2,2,1,5_ + 1 f_1,1,2,5_ = 0
c96: -0.0298 x_2,2,5_ + 1 J_2,2,2,4_ - 1 J_2,2,2,5_ + 1 f_1,2,2,5_ = 0
c97: -0.057 x_2,2,5_ + 1 J_2,2,3,4_ - 1 J_2,2,3,5_ + 1 f_1,3,2,5_ = 0
c98: -0.0815 x_2,2,5_ + 1 J_2,2,4,4_ - 1 J_2,2,4,5_ + 1 f_1,4,2,5_ = 0
c99: -0.00657 x_2,2,5_ + 1 J_2,2,5,4_ - 1 J_2,2,5,5_ + 1 f_1,5,2,5_ = 0
c100: 1 x_2,2,6_ + 1 I_2,2,5_ - 1 I_2,2,6_ - 1 f_2,2,1,6_ - 1 f_2,2,2,6_ = 0
c101: -1.378 x_2,2,6_ + 1 J_2,2,1,5_ - 1 J_2,2,1,6_ + 1 f_1,1,2,6_ = 0
c102: -0.0298 x_2,2,6_ + 1 J_2,2,2,5_ - 1 J_2,2,2,6_ + 1 f_1,2,2,6_ = 0
c103: -0.057 x_2,2,6_ + 1 J_2,2,3,5_ - 1 J_2,2,3,6_ + 1 f_1,3,2,6_ = 0
c104: -0.0815 x_2,2,6_ + 1 J_2,2,4,5_ - 1 J_2,2,4,6_ + 1 f_1,4,2,6_ = 0
c105: -0.00657 x_2,2,6_ + 1 J_2,2,5,5_ - 1 J_2,2,5,6_ + 1 f_1,5,2,6_ = 0
c106: 1 x_2,3,1_ + 1 I_2,3,0_ - 1 I_2,3,1_ - 1 f_2,3,1,1_ - 1 f_2,3,2,1_ = 0
c107: 1 x_2,3,2_ + 1 I_2,3,1_ - 1 I_2,3,2_ - 1 f_2,3,1,2_ - 1 f_2,3,2,2_ = 0
c108: 1 x_2,3,3_ + 1 I_2,3,2_ - 1 I_2,3,3_ - 1 f_2,3,1,3_ - 1 f_2,3,2,3_ = 0
c109: 1 x_2,3,4_ + 1 I_2,3,3_ - 1 I_2,3,4_ - 1 f_2,3,1,4_ - 1 f_2,3,2,4_ = 0
c110: 1 x_2,3,5_ + 1 I_2,3,4_ - 1 I_2,3,5_ - 1 f_2,3,1,5_ - 1 f_2,3,2,5_ = 0
c111: 1 x_2,3,6_ + 1 I_2,3,5_ - 1 I_2,3,6_ - 1 f_2,3,1,6_ - 1 f_2,3,2,6_ = 0
c112: 1 x_2,4,1_ + 1 I_2,4,0_ - 1 I_2,4,1_ - 1 f_2,4,2,1_ = 0
c113: 1 x_2,4,2_ + 1 I_2,4,1_ - 1 I_2,4,2_ - 1 f_2,4,2,2_ = 0
c114: 1 x_2,4,3_ + 1 I_2,4,2_ - 1 I_2,4,3_ - 1 f_2,4,2,3_ = 0
c115: 1 x_2,4,4_ + 1 I_2,4,3_ - 1 I_2,4,4_ - 1 f_2,4,2,4_ = 0
c116: 1 x_2,4,5_ + 1 I_2,4,4_ - 1 I_2,4,5_ - 1 f_2,4,2,5_ = 0
c117: 1 x_2,4,6_ + 1 I_2,4,5_ - 1 I_2,4,6_ - 1 f_2,4,2,6_ = 0
c118: 1 x_3,1,1_ + 1 I_3,1,0_ - 1 I_3,1,1_ - 1 f_3,1,1,1_ = 0
c119: -0.048 x_3,1,1_ + 1 J_3,1,1,0_ - 1 J_3,1,1,1_ + 1 f_2,1,1,1_ = 0
c120: -0.877 x_3,1,1_ + 1 J_3,1,2,0_ - 1 J_3,1,2,1_ + 1 f_2,2,1,1_ = 0
c121: -0.073 x_3,1,1_ + 1 J_3,1,3,0_ - 1 J_3,1,3,1_ + 1 f_2,3,1,1_ = 0
c122: 1 x_3,1,2_ + 1 I_3,1,1_ - 1 I_3,1,2_ - 1 f_3,1,1,2_ = 0
c123: -0.048 x_3,1,2_ + 1 J_3,1,1,1_ - 1 J_3,1,1,2_ + 1 f_2,1,1,2_ = 0
c124: -0.877 x_3,1,2_ + 1 J_3,1,2,1_ - 1 J_3,1,2,2_ + 1 f_2,2,1,2_ = 0
c125: -0.073 x_3,1,2_ + 1 J_3,1,3,1_ - 1 J_3,1,3,2_ + 1 f_2,3,1,2_ = 0
c126: 1 x_3,1,3_ + 1 I_3,1,2_ - 1 I_3,1,3_ - 1 f_3,1,1,3_ = 0
c127: -0.048 x_3,1,3_ + 1 J_3,1,1,2_ - 1 J_3,1,1,3_ + 1 f_2,1,1,3_ = 0
c128: -0.877 x_3,1,3_ + 1 J_3,1,2,2_ - 1 J_3,1,2,3_ + 1 f_2,2,1,3_ = 0
c129: -0.073 x_3,1,3_ + 1 J_3,1,3,2_ - 1 J_3,1,3,3_ + 1 f_2,3,1,3_ = 0
c130: 1 x_3,1,4_ + 1 I_3,1,3_ - 1 I_3,1,4_ - 1 f_3,1,1,4_ = 0
c131: -0.048 x_3,1,4_ + 1 J_3,1,1,3_ - 1 J_3,1,1,4_ + 1 f_2,1,1,4_ = 0
c132: -0.877 x_3,1,4_ + 1 J_3,1,2,3_ - 1 J_3,1,2,4_ + 1 f_2,2,1,4_ = 0
c133: -0.073 x_3,1,4_ + 1 J_3,1,3,3_ - 1 J_3,1,3,4_ + 1 f_2,3,1,4_ = 0
c134: 1 x_3,1,5_ + 1 I_3,1,4_ - 1 I_3,1,5_ - 1 f_3,1,1,5_ = 0
c135: -0.048 x_3,1,5_ + 1 J_3,1,1,4_ - 1 J_3,1,1,5_ + 1 f_2,1,1,5_ = 0
c136: -0.877 x_3,1,5_ + 1 J_3,1,2,4_ - 1 J_3,1,2,5_ + 1 f_2,2,1,5_ = 0
c137: -0.073 x_3,1,5_ + 1 J_3,1,3,4_ - 1 J_3,1,3,5_ + 1 f_2,3,1,5_ = 0
c138: 1 x_3,1,6_ + 1 I_3,1,5_ - 1 I_3,1,6_ - 1 f_3,1,1,6_ = 0
c139: -0.048 x_3,1,6_ + 1 J_3,1,1,5_ - 1 J_3,1,1,6_ + 1 f_2,1,1,6_ = 0
c140: -0.877 x_3,1,6_ + 1 J_3,1,2,5_ - 1 J_3,1,2,6_ + 1 f_2,2,1,6_ = 0
c141: -0.073 x_3,1,6_ + 1 J_3,1,3,5_ - 1 J_3,1,3,6_ + 1 f_2,3,1,6_ = 0
c142: 1 x_3,2,1_ + 1 I_3,2,0_ - 1 I_3,2,1_ - 1 f_3,2,2,1_ = 0
c143: -0.652 x_3,2,1_ + 1 J_3,2,2,0_ - 1 J_3,2,2,1_ + 1 f_2,2,2,1_ = 0
c144: -0.27 x_3,2,1_ + 1 J_3,2,3,0_ - 1 J_3,2,3,1_ + 1 f_2,3,2,1_ = 0
c145: 1 J_3,2,4,0_ - 1 J_3,2,4,1_ + 1 f_2,4,2,1_ = 0
c146: 1 x_3,2,2_ + 1 I_3,2,1_ - 1 I_3,2,2_ - 1 f_3,2,2,2_ = 0
c147: -0.652 x_3,2,2_ + 1 J_3,2,2,1_ - 1 J_3,2,2,2_ + 1 f_2,2,2,2_ = 0
c148: -0.27 x_3,2,2_ + 1 J_3,2,3,1_ - 1 J_3,2,3,2_ + 1 f_2,3,2,2_ = 0
c149: 1 J_3,2,4,1_ - 1 J_3,2,4,2_ + 1 f_2,4,2,2_ = 0
c150: 1 x_3,2,3_ + 1 I_3,2,2_ - 1 I_3,2,3_ - 1 f_3,2,2,3_ = 0
c151: -0.652 x_3,2,3_ + 1 J_3,2,2,2_ - 1 J_3,2,2,3_ + 1 f_2,2,2,3_ = 0
c152: -0.27 x_3,2,3_ + 1 J_3,2,3,2_ - 1 J_3,2,3,3_ + 1 f_2,3,2,3_ = 0
c153: 1 J_3,2,4,2_ - 1 J_3,2,4,3_ + 1 f_2,4,2,3_ = 0
c154: 1 x_3,2,4_ + 1 I_3,2,3_ - 1 I_3,2,4_ - 1 f_3,2,2,4_ = 0
c155: -0.652 x_3,2,4_ + 1 J_3,2,2,3_ - 1 J_3,2,2,4_ + 1 f_2,2,2,4_ = 0
c156: -0.27 x_3,2,4_ + 1 J_3,2,3,3_ - 1 J_3,2,3,4_ + 1 f_2,3,2,4_ = 0
c157: 1 J_3,2,4,3_ - 1 J_3,2,4,4_ + 1 f_2,4,2,4_ = 0
c158: 1 x_3,2,5_ + 1 I_3,2,4_ - 1 I_3,2,5_ - 1 f_3,2,2,5_ = 0
c159: -0.652 x_3,2,5_ + 1 J_3,2,2,4_ - 1 J_3,2,2,5_ + 1 f_2,2,2,5_ = 0
c160: -0.27 x_3,2,5_ + 1 J_3,2,3,4_ - 1 J_3,2,3,5_ + 1 f_2,3,2,5_ = 0
c161: 1 J_3,2,4,4_ - 1 J_3,2,4,5_ + 1 f_2,4,2,5_ = 0
c162: 1 x_3,2,6_ + 1 I_3,2,5_ - 1 I_3,2,6_ - 1 f_3,2,2,6_ = 0
c163: -0.652 x_3,2,6_ + 1 J_3,2,2,5_ - 1 J_3,2,2,6_ + 1 f_2,2,2,6_ = 0
c164: -0.27 x_3,2,6_ + 1 J_3,2,3,5_ - 1 J_3,2,3,6_ + 1 f_2,3,2,6_ = 0
c165: 1 J_3,2,4,5_ - 1 J_3,2,4,6_ + 1 f_2,4,2,6_ = 0
c166: 1 I_4,1,0_ - 1 I_4,1,1_ + 1 f_3,1,1,1_ = 70000
c167: 1 I_4,1,1_ - 1 I_4,1,2_ + 1 f_3,1,1,2_ = 70000
c168: 1 I_4,1,2_ - 1 I_4,1,3_ + 1 f_3,1,1,3_ = 70000
c169: 1 I_4,1,3_ - 1 I_4,1,4_ + 1 f_3,1,1,4_ = 70000
c170: 1 I_4,1,4_ - 1 I_4,1,5_ + 1 f_3,1,1,5_ = 70000
c171: 1 I_4,1,5_ - 1 I_4,1,6_ + 1 f_3,1,1,6_ = 70000
c172: 1 I_4,2,0_ - 1 I_4,2,1_ + 1 f_3,2,2,1_ = 70000
c173: 1 I_4,2,1_ - 1 I_4,2,2_ + 1 f_3,2,2,2_ = 70000
c174: 1 I_4,2,2_ - 1 I_4,2,3_ + 1 f_3,2,2,3_ = 70000
c175: 1 I_4,2,3_ - 1 I_4,2,4_ + 1 f_3,2,2,4_ = 70000
c176: 1 I_4,2,4_ - 1 I_4,2,5_ + 1 f_3,2,2,5_ = 70000
c177: 1 I_4,2,5_ - 1 I_4,2,6_ + 1 f_3,2,2,6_ = 70000
Bounds
x_1,1,1_ >= 0
x_1,1,2_ >= 0
x_1,1,3_ >= 0
x_1,1,4_ >= 0
x_1,1,5_ >= 0
x_1,1,6_ >= 0
x_1,2,1_ >= 0
x_1,2,2_ >= 0
x_1,2,3_ >= 0
x_1,2,4_ >= 0
x_1,2,5_ >= 0
x_1,2,6_ >= 0
x_1,3,1_ >= 0
x_1,3,2_ >= 0
x_1,3,3_ >= 0
x_1,3,4_ >= 0
x_1,3,5_ >= 0
x_1,3,6_ >= 0
x_1,4,1_ >= 0
x_1,4,2_ >= 0
x_1,4,3_ >= 0
x_1,4,4_ >= 0
x_1,4,5_ >= 0
x_1,4,6_ >= 0
x_1,5,1_ >= 0
x_1,5,2_ >= 0
x_1,5,3_ >= 0
x_1,5,4_ >= 0
x_1,5,5_ >= 0
x_1,5,6_ >= 0
x_2,1,1_ >= 0
x_2,1,2_ >= 0
x_2,1,3_ >= 0
x_2,1,4_ >= 0
x_2,1,5_ >= 0
x_2,1,6_ >= 0
x_2,2,1_ >= 0
x_2,2,2_ >= 0
x_2,2,3_ >= 0
x_2,2,4_ >= 0
x_2,2,5_ >= 0
x_2,2,6_ >= 0
x_2,3,1_ >= 0
x_2,3,2_ >= 0
x_2,3,3_ >= 0
x_2,3,4_ >= 0
x_2,3,5_ >= 0
x_2,3,6_ >= 0
x_2,4,1_ >= 0
x_2,4,2_ >= 0
x_2,4,3_ >= 0
x_2,4,4_ >= 0
x_2,4,5_ >= 0
x_2,4,6_ >= 0
x_3,1,1_ >= 0
x_3,1,2_ >= 0
x_3,1,3_ >= 0
x_3,1,4_ >= 0
x_3,1,5_ >= 0
x_3,1,6_ >= 0
x_3,2,1_ >= 0
x_3,2,2_ >= 0
x_3,2,3_ >= 0
x_3,2,4_ >= 0
x_3,2,5_ >= 0
x_3,2,6_ >= 0
x_4,1,1_ >= 0
x_4,1,2_ >= 0
x_4,1,3_ >= 0
x_4,1,4_ >= 0
x_4,1,5_ >= 0
x_4,1,6_ >= 0
x_4,2,1_ >= 0
x_4,2,2_ >= 0
x_4,2,3_ >= 0
x_4,2,4_ >= 0
x_4,2,5_ >= 0
x_4,2,6_ >= 0
I_1,1,0_ >= 0
I_1,1,1_ >= 0
I_1,1,2_ >= 0
I_1,1,3_ >= 0
I_1,1,4_ >= 0
I_1,1,5_ >= 0
I_1,1,6_ >= 0
I_1,2,0_ >= 0
I_1,2,1_ >= 0
I_1,2,2_ >= 0
I_1,2,3_ >= 0
I_1,2,4_ >= 0
I_1,2,5_ >= 0
I_1,2,6_ >= 0
I_1,3,0_ >= 0
I_1,3,1_ >= 0
I_1,3,2_ >= 0
I_1,3,3_ >= 0
I_1,3,4_ >= 0
I_1,3,5_ >= 0
I_1,3,6_ >= 0
I_1,4,0_ >= 0
I_1,4,1_ >= 0
I_1,4,2_ >= 0
I_1,4,3_ >= 0
I_1,4,4_ >= 0
I_1,4,5_ >= 0
I_1,4,6_ >= 0
I_1,5,0_ >= 0
I_1,5,1_ >= 0
I_1,5,2_ >= 0
I_1,5,3_ >= 0
I_1,5,4_ >= 0
I_1,5,5_ >= 0
I_1,5,6_ >= 0
I_2,1,0_ >= 0
I_2,1,1_ >= 0
I_2,1,2_ >= 0
I_2,1,3_ >= 0
I_2,1,4_ >= 0
I_2,1,5_ >= 0
I_2,1,6_ >= 0
I_2,2,0_ >= 0
I_2,2,1_ >= 0
I_2,2,2_ >= 0
I_2,2,3_ >= 0
I_2,2,4_ >= 0
I_2,2,5_ >= 0
I_2,2,6_ >= 0
I_2,3,0_ >= 0
I_2,3,1_ >= 0
I_2,3,2_ >= 0
I_2,3,3_ >= 0
I_2,3,4_ >= 0
I_2,3,5_ >= 0
I_2,3,6_ >= 0
I_2,4,0_ >= 0
I_2,4,1_ >= 0
I_2,4,2_ >= 0
I_2,4,3_ >= 0
I_2,4,4_ >= 0
I_2,4,5_ >= 0
I_2,4,6_ >= 0
I_3,1,0_ >= 0
I_3,1,1_ >= 0
I_3,1,2_ >= 0
I_3,1,3_ >= 0
I_3,1,4_ >= 0
I_3,1,5_ >= 0
I_3,1,6_ >= 0
I_3,2,0_ >= 0
I_3,2,1_ >= 0
I_3,2,2_ >= 0
I_3,2,3_ >= 0
I_3,2,4_ >= 0
I_3,2,5_ >= 0
I_3,2,6_ >= 0
I_4,1,0_ >= 0
I_4,1,1_ >= 0
I_4,1,2_ >= 0
I_4,1,3_ >= 0
I_4,1,4_ >= 0
I_4,1,5_ >= 0
I_4,1,6_ >= 0
I_4,2,0_ >= 0
I_4,2,1_ >= 0
I_4,2,2_ >= 0
I_4,2,3_ >= 0
I_4,2,4_ >= 0
I_4,2,5_ >= 0
I_4,2,6_ >= 0
J_2,1,1,0_ >= 0
J_2,1,1,1_ >= 0
J_2,1,1,2_ >= 0
J_2,1,1,3_ >= 0
J_2,1,1,4_ >= 0
J_2,1,1,5_ >= 0
J_2,1,1,6_ >= 0
J_2,2,1,0_ >= 0
J_2,2,1,1_ >= 0
J_2,2,1,2_ >= 0
J_2,2,1,3_ >= 0
J_2,2,1,4_ >= 0
J_2,2,1,5_ >= 0
J_2,2,1,6_ >= 0
J_2,2,2,0_ >= 0
J_2,2,2,1_ >= 0
J_2,2,2,2_ >= 0
J_2,2,2,3_ >= 0
J_2,2,2,4_ >= 0
J_2,2,2,5_ >= 0
J_2,2,2,6_ >= 0
J_2,2,3,0_ >= 0
J_2,2,3,1_ >= 0
J_2,2,3,2_ >= 0
J_2,2,3,3_ >= 0
J_2,2,3,4_ >= 0
J_2,2,3,5_ >= 0
J_2,2,3,6_ >= 0
J_2,2,4,0_ >= 0
J_2,2,4,1_ >= 0
J_2,2,4,2_ >= 0
J_2,2,4,3_ >= 0
J_2,2,4,4_ >= 0
J_2,2,4,5_ >= 0
J_2,2,4,6_ >= 0
J_2,2,5,0_ >= 0
J_2,2,5,1_ >= 0
J_2,2,5,2_ >= 0
J_2,2,5,3_ >= 0
J_2,2,5,4_ >= 0
J_2,2,5,5_ >= 0
J_2,2,5,6_ >= 0
J_3,1,1,0_ >= 0
J_3,1,1,1_ >= 0
J_3,1,1,2_ >= 0
J_3,1,1,3_ >= 0
J_3,1,1,4_ >= 0
J_3,1,1,5_ >= 0
J_3,1,1,6_ >= 0
J_3,1,2,0_ >= 0
J_3,1,2,1_ >= 0
J_3,1,2,2_ >= 0
J_3,1,2,3_ >= 0
J_3,1,2,4_ >= 0
J_3,1,2,5_ >= 0
J_3,1,2,6_ >= 0
J_3,1,3,0_ >= 0
J_3,1,3,1_ >= 0
J_3,1,3,2_ >= 0
J_3,1,3,3_ >= 0
J_3,1,3,4_ >= 0
J_3,1,3,5_ >= 0
J_3,1,3,6_ >= 0
J_3,2,2,0_ >= 0
J_3,2,2,1_ >= 0
J_3,2,2,2_ >= 0
J_3,2,2,3_ >= 0
J_3,2,2,4_ >= 0
J_3,2,2,5_ >= 0
J_3,2,2,6_ >= 0
J_3,2,3,0_ >= 0
J_3,2,3,1_ >= 0
J_3,2,3,2_ >= 0
J_3,2,3,3_ >= 0
J_3,2,3,4_ >= 0
J_3,2,3,5_ >= 0
J_3,2,3,6_ >= 0
J_3,2,4,0_ >= 0
J_3,2,4,1_ >= 0
J_3,2,4,2_ >= 0
J_3,2,4,3_ >= 0
J_3,2,4,4_ >= 0
J_3,2,4,5_ >= 0
J_3,2,4,6_ >= 0
J_4,1,1,0_ >= 0
J_4,1,1,1_ >= 0
J_4,1,1,2_ >= 0
J_4,1,1,3_ >= 0
J_4,1,1,4_ >= 0
J_4,1,1,5_ >= 0
J_4,1,1,6_ >= 0
J_4,2,2,0_ >= 0
J_4,2,2,1_ >= 0
J_4,2,2,2_ >= 0
J_4,2,2,3_ >= 0
J_4,2,2,4_ >= 0
J_4,2,2,5_ >= 0
J_4,2,2,6_ >= 0
f_1,1,1,0_ >= 0
f_1,1,1,1_ >= 0
f_1,1,1,2_ >= 0
f_1,1,1,3_ >= 0
f_1,1,1,4_ >= 0
f_1,1,1,5_ >= 0
f_1,1,1,6_ >= 0
f_1,1,2,0_ >= 0
f_1,1,2,1_ >= 0
f_1,1,2,2_ >= 0
f_1,1,2,3_ >= 0
f_1,1,2,4_ >= 0
f_1,1,2,5_ >= 0
f_1,1,2,6_ >= 0
f_1,1,3,0_ >= 0
f_1,1,3,1_ >= 0
f_1,1,3,2_ >= 0
f_1,1,3,3_ >= 0
f_1,1,3,4_ >= 0
f_1,1,3,5_ >= 0
f_1,1,3,6_ >= 0
f_1,1,4,0_ >= 0
f_1,1,4,1_ >= 0
f_1,1,4,2_ >= 0
f_1,1,4,3_ >= 0
f_1,1,4,4_ >= 0
f_1,1,4,5_ >= 0
f_1,1,4,6_ >= 0
f_1,2,1,0_ >= 0
f_1,2,1,1_ >= 0
f_1,2,1,2_ >= 0
f_1,2,1,3_ >= 0
f_1,2,1,4_ >= 0
f_1,2,1,5_ >= 0
f_1,2,1,6_ >= 0
f_1,2,2,0_ >= 0
f_1,2,2,1_ >= 0
f_1,2,2,2_ >= 0
f_1,2,2,3_ >= 0
f_1,2,2,4_ >= 0
f_1,2,2,5_ >= 0
f_1,2,2,6_ >= 0
f_1,2,3,0_ >= 0
f_1,2,3,1_ >= 0
f_1,2,3,2_ >= 0
f_1,2,3,3_ >= 0
f_1,2,3,4_ >= 0
f_1,2,3,5_ >= 0
f_1,2,3,6_ >= 0
f_1,2,4,0_ >= 0
f_1,2,4,1_ >= 0
f_1,2,4,2_ >= 0
f_1,2,4,3_ >= 0
f_1,2,4,4_ >= 0
f_1,2,4,5_ >= 0
f_1,2,4,6_ >= 0
f_1,3,1,0_ >= 0
f_1,3,1,1_ >= 0
f_1,3,1,2_ >= 0
f_1,3,1,3_ >= 0
f_1,3,1,4_ >= 0
f_1,3,1,5_ >= 0
f_1,3,1,6_ >= 0
f_1,3,2,0_ >= 0
f_1,3,2,1_ >= 0
f_1,3,2,2_ >= 0
f_1,3,2,3_ >= 0
f_1,3,2,4_ >= 0
f_1,3,2,5_ >= 0
f_1,3,2,6_ >= 0
f_1,3,3,0_ >= 0
f_1,3,3,1_ >= 0
f_1,3,3,2_ >= 0
f_1,3,3,3_ >= 0
f_1,3,3,4_ >= 0
f_1,3,3,5_ >= 0
f_1,3,3,6_ >= 0
f_1,3,4,0_ >= 0
f_1,3,4,1_ >= 0
f_1,3,4,2_ >= 0
f_1,3,4,3_ >= 0
f_1,3,4,4_ >= 0
f_1,3,4,5_ >= 0
f_1,3,4,6_ >= 0
f_1,4,1,0_ >= 0
f_1,4,1,1_ >= 0
f_1,4,1,2_ >= 0
f_1,4,1,3_ >= 0
f_1,4,1,4_ >= 0
f_1,4,1,5_ >= 0
f_1,4,1,6_ >= 0
f_1,4,2,0_ >= 0
f_1,4,2,1_ >= 0
f_1,4,2,2_ >= 0
f_1,4,2,3_ >= 0
f_1,4,2,4_ >= 0
f_1,4,2,5_ >= 0
f_1,4,2,6_ >= 0
f_1,4,3,0_ >= 0
f_1,4,3,1_ >= 0
f_1,4,3,2_ >= 0
f_1,4,3,3_ >= 0
f_1,4,3,4_ >= 0
f_1,4,3,5_ >= 0
f_1,4,3,6_ >= 0
f_1,4,4,0_ >= 0
f_1,4,4,1_ >= 0
f_1,4,4,2_ >= 0
f_1,4,4,3_ >= 0
f_1,4,4,4_ >= 0
f_1,4,4,5_ >= 0
f_1,4,4,6_ >= 0
f_1,5,1,0_ >= 0
f_1,5,1,1_ >= 0
f_1,5,1,2_ >= 0
f_1,5,1,3_ >= 0
f_1,5,1,4_ >= 0
f_1,5,1,5_ >= 0
f_1,5,1,6_ >= 0
f_1,5,2,0_ >= 0
f_1,5,2,1_ >= 0
f_1,5,2,2_ >= 0
f_1,5,2,3_ >= 0
f_1,5,2,4_ >= 0
f_1,5,2,5_ >= 0
f_1,5,2,6_ >= 0
f_1,5,3,0_ >= 0
f_1,5,3,1_ >= 0
f_1,5,3,2_ >= 0
f_1,5,3,3_ >= 0
f_1,5,3,4_ >= 0
f_1,5,3,5_ >= 0
f_1,5,3,6_ >= 0
f_1,5,4,0_ >= 0
f_1,5,4,1_ >= 0
f_1,5,4,2_ >= 0
f_1,5,4,3_ >= 0
f_1,5,4,4_ >= 0
f_1,5,4,5_ >= 0
f_1,5,4,6_ >= 0
f_2,1,1,0_ >= 0
f_2,1,1,1_ >= 0
f_2,1,1,2_ >= 0
f_2,1,1,3_ >= 0
f_2,1,1,4_ >= 0
f_2,1,1,5_ >= 0
f_2,1,1,6_ >= 0
f_2,1,2,0_ >= 0
f_2,1,2,1_ >= 0
f_2,1,2,2_ >= 0
f_2,1,2,3_ >= 0
f_2,1,2,4_ >= 0
f_2,1,2,5_ >= 0
f_2,1,2,6_ >= 0
f_2,2,1,0_ >= 0
f_2,2,1,1_ >= 0
f_2,2,1,2_ >= 0
f_2,2,1,3_ >= 0
f_2,2,1,4_ >= 0
f_2,2,1,5_ >= 0
f_2,2,1,6_ >= 0
f_2,2,2,0_ >= 0
f_2,2,2,1_ >= 0
f_2,2,2,2_ >= 0
f_2,2,2,3_ >= 0
f_2,2,2,4_ >= 0
f_2,2,2,5_ >= 0
f_2,2,2,6_ >= 0
f_2,3,1,0_ >= 0
f_2,3,1,1_ >= 0
f_2,3,1,2_ >= 0
f_2,3,1,3_ >= 0
f_2,3,1,4_ >= 0
f_2,3,1,5_ >= 0
f_2,3,1,6_ >= 0
f_2,3,2,0_ >= 0
f_2,3,2,1_ >= 0
f_2,3,2,2_ >= 0
f_2,3,2,3_ >= 0
f_2,3,2,4_ >= 0
f_2,3,2,5_ >= 0
f_2,3,2,6_ >= 0
f_2,4,1,0_ >= 0
f_2,4,1,1_ >= 0
f_2,4,1,2_ >= 0
f_2,4,1,3_ >= 0
f_2,4,1,4_ >= 0
f_2,4,1,5_ >= 0
f_2,4,1,6_ >= 0
f_2,4,2,0_ >= 0
f_2,4,2,1_ >= 0
f_2,4,2,2_ >= 0
f_2,4,2,3_ >= 0
f_2,4,2,4_ >= 0
f_2,4,2,5_ >= 0
f_2,4,2,6_ >= 0
f_3,1,1,0_ >= 0
f_3,1,1,1_ >= 0
f_3,1,1,2_ >= 0
f_3,1,1,3_ >= 0
f_3,1,1,4_ >= 0
f_3,1,1,5_ >= 0
f_3,1,1,6_ >= 0
f_3,1,2,0_ >= 0
f_3,1,2,1_ >= 0
f_3,1,2,2_ >= 0
f_3,1,2,3_ >= 0
f_3,1,2,4_ >= 0
f_3,1,2,5_ >= 0
f_3,1,2,6_ >= 0
f_3,2,1,0_ >= 0
f_3,2,1,1_ >= 0
f_3,2,1,2_ >= 0
f_3,2,1,3_ >= 0
f_3,2,1,4_ >= 0
f_3,2,1,5_ >= 0
f_3,2,1,6_ >= 0
f_3,2,2,0_ >= 0
f_3,2,2,1_ >= 0
f_3,2,2,2_ >= 0
f_3,2,2,3_ >= 0
f_3,2,2,4_ >= 0
f_3,2,2,5_ >= 0
f_3,2,2,6_ >= 0
End
